5 5
0 92 1 75 3 74 4 39 2 24
2 38 1 88 3 97 4 81 0 57
0 44 1 36 2 99 4 70 3 80
2 45 3 92 4 96 1 26 0 11
4 52 3 25 0 31 2 85 1 45
-1
0 2 3 5
0 1 2 4 5
0 2 5
0 3 5
0 1 2 3 5
-2
201 359 422
51 191 343 399
81 333
317 369
52 111 117 362

447 8
10 0 22 19 9
11 6 1 18 24
15 5 12 23 4
16 21 7 2 14
20 17 13 8 3
